c graph colorability of graph:
c random_regular_graph(5, 98).
c
c Generated with `cnfgen`
c (C) 2012-2016 Massimo Lauria <lauria.massimo@gmail.com>
c https://massimolauria.github.io/cnfgen
c
p cnf 294 1127
1 2 3 0
-1 -2 0
-1 -3 0
-2 -3 0
4 5 6 0
-4 -5 0
-4 -6 0
-5 -6 0
7 8 9 0
-7 -8 0
-7 -9 0
-8 -9 0
10 11 12 0
-10 -11 0
-10 -12 0
-11 -12 0
13 14 15 0
-13 -14 0
-13 -15 0
-14 -15 0
16 17 18 0
-16 -17 0
-16 -18 0
-17 -18 0
19 20 21 0
-19 -20 0
-19 -21 0
-20 -21 0
22 23 24 0
-22 -23 0
-22 -24 0
-23 -24 0
25 26 27 0
-25 -26 0
-25 -27 0
-26 -27 0
28 29 30 0
-28 -29 0
-28 -30 0
-29 -30 0
31 32 33 0
-31 -32 0
-31 -33 0
-32 -33 0
34 35 36 0
-34 -35 0
-34 -36 0
-35 -36 0
37 38 39 0
-37 -38 0
-37 -39 0
-38 -39 0
40 41 42 0
-40 -41 0
-40 -42 0
-41 -42 0
43 44 45 0
-43 -44 0
-43 -45 0
-44 -45 0
46 47 48 0
-46 -47 0
-46 -48 0
-47 -48 0
49 50 51 0
-49 -50 0
-49 -51 0
-50 -51 0
52 53 54 0
-52 -53 0
-52 -54 0
-53 -54 0
55 56 57 0
-55 -56 0
-55 -57 0
-56 -57 0
58 59 60 0
-58 -59 0
-58 -60 0
-59 -60 0
61 62 63 0
-61 -62 0
-61 -63 0
-62 -63 0
64 65 66 0
-64 -65 0
-64 -66 0
-65 -66 0
67 68 69 0
-67 -68 0
-67 -69 0
-68 -69 0
70 71 72 0
-70 -71 0
-70 -72 0
-71 -72 0
73 74 75 0
-73 -74 0
-73 -75 0
-74 -75 0
76 77 78 0
-76 -77 0
-76 -78 0
-77 -78 0
79 80 81 0
-79 -80 0
-79 -81 0
-80 -81 0
82 83 84 0
-82 -83 0
-82 -84 0
-83 -84 0
85 86 87 0
-85 -86 0
-85 -87 0
-86 -87 0
88 89 90 0
-88 -89 0
-88 -90 0
-89 -90 0
91 92 93 0
-91 -92 0
-91 -93 0
-92 -93 0
94 95 96 0
-94 -95 0
-94 -96 0
-95 -96 0
97 98 99 0
-97 -98 0
-97 -99 0
-98 -99 0
100 101 102 0
-100 -101 0
-100 -102 0
-101 -102 0
103 104 105 0
-103 -104 0
-103 -105 0
-104 -105 0
106 107 108 0
-106 -107 0
-106 -108 0
-107 -108 0
109 110 111 0
-109 -110 0
-109 -111 0
-110 -111 0
112 113 114 0
-112 -113 0
-112 -114 0
-113 -114 0
115 116 117 0
-115 -116 0
-115 -117 0
-116 -117 0
118 119 120 0
-118 -119 0
-118 -120 0
-119 -120 0
121 122 123 0
-121 -122 0
-121 -123 0
-122 -123 0
124 125 126 0
-124 -125 0
-124 -126 0
-125 -126 0
127 128 129 0
-127 -128 0
-127 -129 0
-128 -129 0
130 131 132 0
-130 -131 0
-130 -132 0
-131 -132 0
133 134 135 0
-133 -134 0
-133 -135 0
-134 -135 0
136 137 138 0
-136 -137 0
-136 -138 0
-137 -138 0
139 140 141 0
-139 -140 0
-139 -141 0
-140 -141 0
142 143 144 0
-142 -143 0
-142 -144 0
-143 -144 0
145 146 147 0
-145 -146 0
-145 -147 0
-146 -147 0
148 149 150 0
-148 -149 0
-148 -150 0
-149 -150 0
151 152 153 0
-151 -152 0
-151 -153 0
-152 -153 0
154 155 156 0
-154 -155 0
-154 -156 0
-155 -156 0
157 158 159 0
-157 -158 0
-157 -159 0
-158 -159 0
160 161 162 0
-160 -161 0
-160 -162 0
-161 -162 0
163 164 165 0
-163 -164 0
-163 -165 0
-164 -165 0
166 167 168 0
-166 -167 0
-166 -168 0
-167 -168 0
169 170 171 0
-169 -170 0
-169 -171 0
-170 -171 0
172 173 174 0
-172 -173 0
-172 -174 0
-173 -174 0
175 176 177 0
-175 -176 0
-175 -177 0
-176 -177 0
178 179 180 0
-178 -179 0
-178 -180 0
-179 -180 0
181 182 183 0
-181 -182 0
-181 -183 0
-182 -183 0
184 185 186 0
-184 -185 0
-184 -186 0
-185 -186 0
187 188 189 0
-187 -188 0
-187 -189 0
-188 -189 0
190 191 192 0
-190 -191 0
-190 -192 0
-191 -192 0
193 194 195 0
-193 -194 0
-193 -195 0
-194 -195 0
196 197 198 0
-196 -197 0
-196 -198 0
-197 -198 0
199 200 201 0
-199 -200 0
-199 -201 0
-200 -201 0
202 203 204 0
-202 -203 0
-202 -204 0
-203 -204 0
205 206 207 0
-205 -206 0
-205 -207 0
-206 -207 0
208 209 210 0
-208 -209 0
-208 -210 0
-209 -210 0
211 212 213 0
-211 -212 0
-211 -213 0
-212 -213 0
214 215 216 0
-214 -215 0
-214 -216 0
-215 -216 0
217 218 219 0
-217 -218 0
-217 -219 0
-218 -219 0
220 221 222 0
-220 -221 0
-220 -222 0
-221 -222 0
223 224 225 0
-223 -224 0
-223 -225 0
-224 -225 0
226 227 228 0
-226 -227 0
-226 -228 0
-227 -228 0
229 230 231 0
-229 -230 0
-229 -231 0
-230 -231 0
232 233 234 0
-232 -233 0
-232 -234 0
-233 -234 0
235 236 237 0
-235 -236 0
-235 -237 0
-236 -237 0
238 239 240 0
-238 -239 0
-238 -240 0
-239 -240 0
241 242 243 0
-241 -242 0
-241 -243 0
-242 -243 0
244 245 246 0
-244 -245 0
-244 -246 0
-245 -246 0
247 248 249 0
-247 -248 0
-247 -249 0
-248 -249 0
250 251 252 0
-250 -251 0
-250 -252 0
-251 -252 0
253 254 255 0
-253 -254 0
-253 -255 0
-254 -255 0
256 257 258 0
-256 -257 0
-256 -258 0
-257 -258 0
259 260 261 0
-259 -260 0
-259 -261 0
-260 -261 0
262 263 264 0
-262 -263 0
-262 -264 0
-263 -264 0
265 266 267 0
-265 -266 0
-265 -267 0
-266 -267 0
268 269 270 0
-268 -269 0
-268 -270 0
-269 -270 0
271 272 273 0
-271 -272 0
-271 -273 0
-272 -273 0
274 275 276 0
-274 -275 0
-274 -276 0
-275 -276 0
277 278 279 0
-277 -278 0
-277 -279 0
-278 -279 0
280 281 282 0
-280 -281 0
-280 -282 0
-281 -282 0
283 284 285 0
-283 -284 0
-283 -285 0
-284 -285 0
286 287 288 0
-286 -287 0
-286 -288 0
-287 -288 0
289 290 291 0
-289 -290 0
-289 -291 0
-290 -291 0
292 293 294 0
-292 -293 0
-292 -294 0
-293 -294 0
-1 -34 0
-2 -35 0
-3 -36 0
-1 -58 0
-2 -59 0
-3 -60 0
-1 -73 0
-2 -74 0
-3 -75 0
-1 -100 0
-2 -101 0
-3 -102 0
-1 -289 0
-2 -290 0
-3 -291 0
-4 -61 0
-5 -62 0
-6 -63 0
-4 -139 0
-5 -140 0
-6 -141 0
-4 -160 0
-5 -161 0
-6 -162 0
-4 -199 0
-5 -200 0
-6 -201 0
-4 -259 0
-5 -260 0
-6 -261 0
-7 -64 0
-8 -65 0
-9 -66 0
-7 -106 0
-8 -107 0
-9 -108 0
-7 -169 0
-8 -170 0
-9 -171 0
-7 -253 0
-8 -254 0
-9 -255 0
-7 -271 0
-8 -272 0
-9 -273 0
-10 -28 0
-11 -29 0
-12 -30 0
-10 -40 0
-11 -41 0
-12 -42 0
-10 -181 0
-11 -182 0
-12 -183 0
-10 -199 0
-11 -200 0
-12 -201 0
-10 -235 0
-11 -236 0
-12 -237 0
-13 -19 0
-14 -20 0
-15 -21 0
-13 -85 0
-14 -86 0
-15 -87 0
-13 -97 0
-14 -98 0
-15 -99 0
-13 -124 0
-14 -125 0
-15 -126 0
-13 -136 0
-14 -137 0
-15 -138 0
-16 -55 0
-17 -56 0
-18 -57 0
-16 -115 0
-17 -116 0
-18 -117 0
-16 -184 0
-17 -185 0
-18 -186 0
-16 -247 0
-17 -248 0
-18 -249 0
-16 -256 0
-17 -257 0
-18 -258 0
-19 -106 0
-20 -107 0
-21 -108 0
-19 -166 0
-20 -167 0
-21 -168 0
-19 -178 0
-20 -179 0
-21 -180 0
-19 -214 0
-20 -215 0
-21 -216 0
-22 -130 0
-23 -131 0
-24 -132 0
-22 -148 0
-23 -149 0
-24 -150 0
-22 -175 0
-23 -176 0
-24 -177 0
-22 -217 0
-23 -218 0
-24 -219 0
-22 -274 0
-23 -275 0
-24 -276 0
-25 -67 0
-26 -68 0
-27 -69 0
-25 -79 0
-26 -80 0
-27 -81 0
-25 -100 0
-26 -101 0
-27 -102 0
-25 -172 0
-26 -173 0
-27 -174 0
-25 -202 0
-26 -203 0
-27 -204 0
-28 -34 0
-29 -35 0
-30 -36 0
-28 -130 0
-29 -131 0
-30 -132 0
-28 -157 0
-29 -158 0
-30 -159 0
-28 -271 0
-29 -272 0
-30 -273 0
-31 -43 0
-32 -44 0
-33 -45 0
-31 -52 0
-32 -53 0
-33 -54 0
-31 -61 0
-32 -62 0
-33 -63 0
-31 -82 0
-32 -83 0
-33 -84 0
-31 -94 0
-32 -95 0
-33 -96 0
-34 -37 0
-35 -38 0
-36 -39 0
-34 -121 0
-35 -122 0
-36 -123 0
-34 -157 0
-35 -158 0
-36 -159 0
-37 -40 0
-38 -41 0
-39 -42 0
-37 -106 0
-38 -107 0
-39 -108 0
-37 -163 0
-38 -164 0
-39 -165 0
-37 -226 0
-38 -227 0
-39 -228 0
-40 -232 0
-41 -233 0
-42 -234 0
-40 -247 0
-41 -248 0
-42 -249 0
-40 -292 0
-41 -293 0
-42 -294 0
-43 -121 0
-44 -122 0
-45 -123 0
-43 -187 0
-44 -188 0
-45 -189 0
-43 -196 0
-44 -197 0
-45 -198 0
-43 -205 0
-44 -206 0
-45 -207 0
-46 -115 0
-47 -116 0
-48 -117 0
-46 -151 0
-47 -152 0
-48 -153 0
-46 -262 0
-47 -263 0
-48 -264 0
-46 -265 0
-47 -266 0
-48 -267 0
-46 -277 0
-47 -278 0
-48 -279 0
-49 -55 0
-50 -56 0
-51 -57 0
-49 -136 0
-50 -137 0
-51 -138 0
-49 -184 0
-50 -185 0
-51 -186 0
-49 -190 0
-50 -191 0
-51 -192 0
-49 -283 0
-50 -284 0
-51 -285 0
-52 -61 0
-53 -62 0
-54 -63 0
-52 -64 0
-53 -65 0
-54 -66 0
-52 -154 0
-53 -155 0
-54 -156 0
-52 -244 0
-53 -245 0
-54 -246 0
-55 -217 0
-56 -218 0
-57 -219 0
-55 -241 0
-56 -242 0
-57 -243 0
-55 -244 0
-56 -245 0
-57 -246 0
-58 -91 0
-59 -92 0
-60 -93 0
-58 -106 0
-59 -107 0
-60 -108 0
-58 -196 0
-59 -197 0
-60 -198 0
-58 -280 0
-59 -281 0
-60 -282 0
-61 -142 0
-62 -143 0
-63 -144 0
-61 -187 0
-62 -188 0
-63 -189 0
-64 -100 0
-65 -101 0
-66 -102 0
-64 -124 0
-65 -125 0
-66 -126 0
-64 -166 0
-65 -167 0
-66 -168 0
-67 -127 0
-68 -128 0
-69 -129 0
-67 -139 0
-68 -140 0
-69 -141 0
-67 -223 0
-68 -224 0
-69 -225 0
-67 -283 0
-68 -284 0
-69 -285 0
-70 -76 0
-71 -77 0
-72 -78 0
-70 -79 0
-71 -80 0
-72 -81 0
-70 -97 0
-71 -98 0
-72 -99 0
-70 -133 0
-71 -134 0
-72 -135 0
-70 -250 0
-71 -251 0
-72 -252 0
-73 -118 0
-74 -119 0
-75 -120 0
-73 -250 0
-74 -251 0
-75 -252 0
-73 -259 0
-74 -260 0
-75 -261 0
-73 -268 0
-74 -269 0
-75 -270 0
-76 -112 0
-77 -113 0
-78 -114 0
-76 -130 0
-77 -131 0
-78 -132 0
-76 -208 0
-77 -209 0
-78 -210 0
-76 -220 0
-77 -221 0
-78 -222 0
-79 -109 0
-80 -110 0
-81 -111 0
-79 -154 0
-80 -155 0
-81 -156 0
-79 -178 0
-80 -179 0
-81 -180 0
-82 -97 0
-83 -98 0
-84 -99 0
-82 -142 0
-83 -143 0
-84 -144 0
-82 -145 0
-83 -146 0
-84 -147 0
-82 -214 0
-83 -215 0
-84 -216 0
-85 -103 0
-86 -104 0
-87 -105 0
-85 -130 0
-86 -131 0
-87 -132 0
-85 -160 0
-86 -161 0
-87 -162 0
-85 -247 0
-86 -248 0
-87 -249 0
-88 -91 0
-89 -92 0
-90 -93 0
-88 -94 0
-89 -95 0
-90 -96 0
-88 -115 0
-89 -116 0
-90 -117 0
-88 -190 0
-89 -191 0
-90 -192 0
-88 -262 0
-89 -263 0
-90 -264 0
-91 -160 0
-92 -161 0
-93 -162 0
-91 -199 0
-92 -200 0
-93 -201 0
-91 -208 0
-92 -209 0
-93 -210 0
-94 -139 0
-95 -140 0
-96 -141 0
-94 -160 0
-95 -161 0
-96 -162 0
-94 -265 0
-95 -266 0
-96 -267 0
-97 -151 0
-98 -152 0
-99 -153 0
-97 -193 0
-98 -194 0
-99 -195 0
-100 -151 0
-101 -152 0
-102 -153 0
-100 -190 0
-101 -191 0
-102 -192 0
-103 -148 0
-104 -149 0
-105 -150 0
-103 -157 0
-104 -158 0
-105 -159 0
-103 -172 0
-104 -173 0
-105 -174 0
-103 -193 0
-104 -194 0
-105 -195 0
-106 -277 0
-107 -278 0
-108 -279 0
-109 -160 0
-110 -161 0
-111 -162 0
-109 -175 0
-110 -176 0
-111 -177 0
-109 -238 0
-110 -239 0
-111 -240 0
-109 -247 0
-110 -248 0
-111 -249 0
-112 -226 0
-113 -227 0
-114 -228 0
-112 -232 0
-113 -233 0
-114 -234 0
-112 -286 0
-113 -287 0
-114 -288 0
-112 -289 0
-113 -290 0
-114 -291 0
-115 -124 0
-116 -125 0
-117 -126 0
-115 -142 0
-116 -143 0
-117 -144 0
-118 -142 0
-119 -143 0
-120 -144 0
-118 -211 0
-119 -212 0
-120 -213 0
-118 -271 0
-119 -272 0
-120 -273 0
-118 -283 0
-119 -284 0
-120 -285 0
-121 -202 0
-122 -203 0
-123 -204 0
-121 -214 0
-122 -215 0
-123 -216 0
-121 -241 0
-122 -242 0
-123 -243 0
-124 -178 0
-125 -179 0
-126 -180 0
-124 -244 0
-125 -245 0
-126 -246 0
-127 -181 0
-128 -182 0
-129 -183 0
-127 -220 0
-128 -221 0
-129 -222 0
-127 -253 0
-128 -254 0
-129 -255 0
-127 -265 0
-128 -266 0
-129 -267 0
-130 -157 0
-131 -158 0
-132 -159 0
-133 -181 0
-134 -182 0
-135 -183 0
-133 -190 0
-134 -191 0
-135 -192 0
-133 -223 0
-134 -224 0
-135 -225 0
-133 -256 0
-134 -257 0
-135 -258 0
-136 -166 0
-137 -167 0
-138 -168 0
-136 -217 0
-137 -218 0
-138 -219 0
-136 -280 0
-137 -281 0
-138 -282 0
-139 -145 0
-140 -146 0
-141 -147 0
-139 -274 0
-140 -275 0
-141 -276 0
-142 -229 0
-143 -230 0
-144 -231 0
-145 -148 0
-146 -149 0
-147 -150 0
-145 -175 0
-146 -176 0
-147 -177 0
-145 -253 0
-146 -254 0
-147 -255 0
-148 -205 0
-149 -206 0
-150 -207 0
-148 -247 0
-149 -248 0
-150 -249 0
-151 -265 0
-152 -266 0
-153 -267 0
-151 -268 0
-152 -269 0
-153 -270 0
-154 -232 0
-155 -233 0
-156 -234 0
-154 -256 0
-155 -257 0
-156 -258 0
-154 -259 0
-155 -260 0
-156 -261 0
-157 -196 0
-158 -197 0
-159 -198 0
-163 -181 0
-164 -182 0
-165 -183 0
-163 -211 0
-164 -212 0
-165 -213 0
-163 -244 0
-164 -245 0
-165 -246 0
-163 -286 0
-164 -287 0
-165 -288 0
-166 -169 0
-167 -170 0
-168 -171 0
-166 -253 0
-167 -254 0
-168 -255 0
-169 -214 0
-170 -215 0
-171 -216 0
-169 -235 0
-170 -236 0
-171 -237 0
-169 -280 0
-170 -281 0
-171 -282 0
-172 -193 0
-173 -194 0
-174 -195 0
-172 -274 0
-173 -275 0
-174 -276 0
-172 -277 0
-173 -278 0
-174 -279 0
-175 -202 0
-176 -203 0
-177 -204 0
-175 -262 0
-176 -263 0
-177 -264 0
-178 -226 0
-179 -227 0
-180 -228 0
-178 -241 0
-179 -242 0
-180 -243 0
-181 -250 0
-182 -251 0
-183 -252 0
-184 -193 0
-185 -194 0
-186 -195 0
-184 -238 0
-185 -239 0
-186 -240 0
-184 -256 0
-185 -257 0
-186 -258 0
-187 -232 0
-188 -233 0
-189 -234 0
-187 -280 0
-188 -281 0
-189 -282 0
-187 -289 0
-188 -290 0
-189 -291 0
-190 -283 0
-191 -284 0
-192 -285 0
-193 -265 0
-194 -266 0
-195 -267 0
-196 -208 0
-197 -209 0
-198 -210 0
-196 -235 0
-197 -236 0
-198 -237 0
-199 -205 0
-200 -206 0
-201 -207 0
-199 -217 0
-200 -218 0
-201 -219 0
-202 -238 0
-203 -239 0
-204 -240 0
-202 -271 0
-203 -272 0
-204 -273 0
-205 -262 0
-206 -263 0
-207 -264 0
-205 -268 0
-206 -269 0
-207 -270 0
-208 -229 0
-209 -230 0
-210 -231 0
-208 -280 0
-209 -281 0
-210 -282 0
-211 -232 0
-212 -233 0
-213 -234 0
-211 -256 0
-212 -257 0
-213 -258 0
-211 -277 0
-212 -278 0
-213 -279 0
-214 -217 0
-215 -218 0
-216 -219 0
-220 -223 0
-221 -224 0
-222 -225 0
-220 -250 0
-221 -251 0
-222 -252 0
-220 -262 0
-221 -263 0
-222 -264 0
-223 -286 0
-224 -287 0
-225 -288 0
-223 -289 0
-224 -290 0
-225 -291 0
-226 -229 0
-227 -230 0
-228 -231 0
-226 -292 0
-227 -293 0
-228 -294 0
-229 -238 0
-230 -239 0
-231 -240 0
-229 -277 0
-230 -278 0
-231 -279 0
-235 -241 0
-236 -242 0
-237 -243 0
-235 -283 0
-236 -284 0
-237 -285 0
-238 -292 0
-239 -293 0
-240 -294 0
-241 -271 0
-242 -272 0
-243 -273 0
-244 -253 0
-245 -254 0
-246 -255 0
-250 -286 0
-251 -287 0
-252 -288 0
-259 -274 0
-260 -275 0
-261 -276 0
-259 -292 0
-260 -293 0
-261 -294 0
-268 -274 0
-269 -275 0
-270 -276 0
-268 -289 0
-269 -290 0
-270 -291 0
-286 -292 0
-287 -293 0
-288 -294 0
